(set-logic QF_S)
(declare-fun var0 () String)
(assert (str.in.re var0 (re.++ (re.+ (re.union (str.to.re "0") (str.to.re "11"))) (re.++ (re.* (re.union (str.to.re "22") (str.to.re "33"))) (re.++ (re.union (re.+ (str.to.re "4")) (re.+ (str.to.re "555"))) (re.++ (re.+ (re.+ (str.to.re "6"))) (re.++ (re.* (re.union (str.to.re "777") (str.to.re "8"))) (re.++ (re.union (re.* (str.to.re "9")) (re.* (str.to.re "a"))) (re.++ (re.* (re.* (str.to.re "b"))) (re.++ (re.+ (re.* (str.to.re "c"))) (re.++ (re.+ (re.* (str.to.re "dd"))) (re.++ (re.+ (re.union (str.to.re "e") (str.to.re "fff"))) (re.++ (re.union (re.+ (str.to.re "g")) (re.+ (str.to.re "hhh"))) (re.++ (re.+ (re.union (str.to.re "ii") (str.to.re "jj"))) (re.union (re.union (str.to.re "kk") (str.to.re "l")) (re.union (str.to.re "mmm") (str.to.re "n")))))))))))))))))
(check-sat)